============================[ Problem Statistics ]=============================|                                                                             ||  Number of variables:          4242                                         ||  Number of clauses:            9837                                         ||  Parse time:                   0.24 s                                       ||                                                                             |============================[ Search Statistics ]==============================| Conflicts |          ORIGINAL         |          LEARNT          | Progress ||           |    Vars  Clauses Literals |    Limit  Clauses Lit/Cl |          |===============================================================================|       100 |    1591     6042   360223 |     2215      100     53 | 62.501 % |===============================================================================restarts              : 2conflicts             : 141            (361 /sec)decisions             : 314            (0.00 % random) (803 /sec)propagations          : 9939           (25419 /sec)conflict literals     : 8896           (95.49 % deleted)CPU time              : 0.391 sSATISFIABLE